Set parameter TokenServer to value "hpc-licenses.hpcc.usc.edu"
Set parameter TimeLimit to value 3600
Gurobi Optimizer version 9.5.1 build v9.5.1rc2 (linux64)
Thread count: 20 physical cores, 20 logical processors, using up to 20 threads
Optimize a model with 6007 rows, 4529 columns and 24534 nonzeros
Model fingerprint: 0x74dd2382
Variable types: 4506 continuous, 23 integer (23 binary)
Coefficient statistics:
  Matrix range     [1e+00, 1e+00]
  Objective range  [2e-03, 1e+00]
  Bounds range     [1e+00, 1e+00]
  RHS range        [1e+00, 2e+02]
Presolve removed 1520 rows and 1515 columns
Presolve time: 0.08s
Presolved: 4487 rows, 3014 columns, 21975 nonzeros
Variable types: 2994 continuous, 20 integer (20 binary)
Found heuristic solution: objective 278.7311094

Root relaxation: objective 2.892033e+02, 3226 iterations, 0.16 seconds (0.18 work units)

    Nodes    |    Current Node    |     Objective Bounds      |     Work
 Expl Unexpl |  Obj  Depth IntInf | Incumbent    BestBd   Gap | It/Node Time

     0     0  289.20335    0    2  278.73111  289.20335  3.76%     -    0s
     0     0  289.11234    0    2  278.73111  289.11234  3.72%     -    0s
H    0     0                     279.2252598  289.11234  3.54%     -    0s
H    0     0                     288.9909956  289.11234  0.04%     -    0s

Cutting planes:
  Gomory: 4
  MIR: 130
  Flow cover: 36
  RLT: 4
  Relax-and-lift: 12

Explored 1 nodes (3266 simplex iterations) in 0.58 seconds (0.42 work units)
Thread count was 20 (of 20 available processors)

Solution count 3: 288.991 279.225 278.731 

Optimal solution found (tolerance 1.00e-04)
Best objective 2.889909956343e+02, best bound 2.889909956343e+02, gap 0.0000%



#########node  1
V1.6
#########node  2
0.0,1.0
#########node  3
1.0,0.0


Total Solving Time 0.9747076034545898
obj value 288.99099563426694
Policy Regret train (Sum) 1.2397053270686504
Best Treatment Found train (%) 86.8
treatment classification acc train (%) 30.4
Policy Regret test (Sum) 26.7565594125534
Best Treatment Found test (%) 84.76
treatment classification acc test (%) 30.89
